# Objective value = 1.9325730628463277e+03
x[0] 1
x[1] 1
x[2] 0
x[3] 0
x[4] 0
x[5] 0
x[6] 0
x[7] 0
x[8] 1
x[9] 1
x[10] 0
x[11] 0
x[12] 1
x[13] 1
x[14] 1
x[15] 1
x[16] 1
x[17] 1
x[18] 1
x[19] 1
x[20] 1
x[21] 1
x[22] 1
x[23] 1
x[24] 1
x[25] 1
x[26] 0
x[27] 1
x[28] 0
x[29] 0
x[30] 0
x[31] 0
x[32] 0
x[33] 0
x[34] 1
x[35] 0
x[36] 0
x[37] 0
x[38] 1
x[39] 0
x[40] 1
x[41] 0
x[42] 1
x[43] 1
x[44] 0
x[45] 1
x[46] 0
x[47] 1
x[48] 1
x[49] 0
x[50] 1
x[51] 0
x[52] 1
x[53] 0
x[54] 1
x[55] 0
x[56] 0
x[57] 0
x[58] 0
x[59] 0
x[60] 1
x[61] 0
x[62] 0
x[63] 1
x[64] 1
x[65] 0
x[66] 1
x[67] 1
x[68] 1
x[69] 1
x[70] 1
x[71] 1
x[72] 1
x[73] 1
x[74] 0
x[75] 1
x[76] 1
x[77] 1
x[78] 0
x[79] 0
x[80] 0
x[81] 1
x[82] 1
x[83] 1
x[84] 0
x[85] 1
x[86] 0
x[87] 1
x[88] 0
x[89] 0
x[90] 0
x[91] 0
x[92] 0
x[93] 0
x[94] 1
x[95] 1
x[96] 1
x[97] 1
x[98] 1
x[99] 0
x[100] 1
x[101] 0
x[102] 0
x[103] 0
x[104] 1
x[105] 1
x[106] 1
x[107] 1
x[108] 0
x[109] 1
x[110] 1
x[111] 0
x[112] 1
x[113] 0
x[114] 1
x[115] 1
x[116] 1
x[117] 1
x[118] 1
x[119] 1
x[120] 1
x[121] 1
x[122] 0
x[123] 0
x[124] 0
x[125] 1
x[126] 0
x[127] 1
x[128] 1
x[129] 1
x[130] 1
x[131] 0
x[132] 1
x[133] 0
x[134] 1
x[135] 1
x[136] 0
x[137] 0
x[138] 1
x[139] 0
x[140] 1
x[141] 1
x[142] 0
x[143] 1
x[144] 0
x[145] 0
x[146] 0
x[147] 1
x[148] 1
x[149] 1
x[150] 1
x[151] 0
x[152] 1
x[153] 1
x[154] 1
x[155] 0
x[156] 0
x[157] 0
x[158] 1
x[159] 1
x[160] 1
x[161] 0
x[162] 0
x[163] 1
x[164] 0
x[165] 1
x[166] 1
x[167] 1
x[168] 0
x[169] 1
x[170] 1
x[171] 0
x[172] 0
x[173] 1
x[174] 0
x[175] 1
x[176] 0
x[177] 1
x[178] 0
x[179] 1
x[180] 1
x[181] 1
x[182] 1
x[183] 1
x[184] 1
x[185] 1
x[186] 0
x[187] 1
x[188] 1
x[189] 1
x[190] 1
x[191] 0
x[192] 0
x[193] 0
x[194] 1
x[195] 0
x[196] 1
x[197] 0
x[198] 0
x[199] 1
x[200] 1
x[201] 0
x[202] 0
x[203] 0
x[204] 1
x[205] 1
x[206] 1
x[207] 0
x[208] 1
x[209] 0
x[210] 1
x[211] 0
x[212] 0
x[213] 0
x[214] 0
x[215] 1
x[216] 1
x[217] 1
x[218] 0
x[219] 0
x[220] 1
x[221] 1
x[222] 1
x[223] 0
x[224] 1
x[225] 1
x[226] 0
x[227] 1
x[228] 0
x[229] 1
x[230] 0
x[231] 0
x[232] 1
x[233] 1
x[234] 0
x[235] 0
x[236] 0
x[237] 1
x[238] 1
x[239] 0
x[240] 1
x[241] 1
x[242] 0
x[243] 1
x[244] 1
x[245] 0
x[246] 1
x[247] 0
x[248] 0
x[249] 0
x[250] 0
x[251] 1
x[252] 0
x[253] 0
x[254] 1
x[255] 0
x[256] 1
x[257] 0
x[258] 0
x[259] 0
x[260] 1
x[261] 1
x[262] 0
x[263] 1
x[264] 0
x[265] 1
x[266] 1
x[267] 1
x[268] 1
x[269] 0
x[270] 1
x[271] 1
x[272] 1
x[273] 1
x[274] 0
x[275] 1
x[276] 0
x[277] 1
x[278] 0
x[279] 1
x[280] 0
x[281] 1
x[282] 1
x[283] 0
x[284] 0
x[285] 1
x[286] 1
x[287] 0
x[288] 1
x[289] 1
x[290] 1
x[291] 1
x[292] 0
x[293] 1
x[294] 0
x[295] 1
x[296] 1
x[297] 1
x[298] 0
x[299] 0
x[300] 0
x[301] 0
x[302] 0
x[303] 0
x[304] 1
x[305] 0
x[306] 1
x[307] 1
x[308] 1
x[309] 1
x[310] 0
x[311] 1
x[312] 1
x[313] 0
x[314] 0
x[315] 0
x[316] 1
x[317] 0
x[318] 1
x[319] 1
x[320] 1
x[321] 0
x[322] 1
x[323] 1
x[324] 1
x[325] 0
x[326] 0
x[327] 0
x[328] 1
x[329] 1
x[330] 1
x[331] 0
x[332] 1
x[333] 0
x[334] 1
x[335] 0
x[336] 0
x[337] 0
x[338] 1
x[339] 0
x[340] 1
x[341] 1
x[342] 0
x[343] 1
x[344] 1
x[345] 1
x[346] 1
x[347] 0
x[348] 0
x[349] 0
x[350] 1
x[351] 1
x[352] 0
x[353] 1
x[354] 1
x[355] 0
x[356] 0
x[357] 0
x[358] 0
x[359] 1
x[360] 1
x[361] 1
x[362] 1
x[363] 0
x[364] 1
x[365] 0
x[366] 0
x[367] 1
x[368] 0
x[369] 1
x[370] 1
x[371] 0
x[372] 1
x[373] 1
x[374] 0
x[375] 0
x[376] 1
x[377] 1
x[378] 1
x[379] 1
x[380] 0
x[381] 1
x[382] 1
x[383] 0
x[384] 0
x[385] 1
x[386] 1
x[387] 1
x[388] 1
x[389] 1
x[390] 1
x[391] 0
x[392] 0
x[393] 0
x[394] 1
x[395] 1
x[396] 0
x[397] 1
x[398] 0
x[399] 0
x[400] 0
x[401] 0
x[402] 1
x[403] 1
x[404] 0
x[405] 0
x[406] 0
x[407] 1
x[408] 1
x[409] 0
x[410] 1
x[411] 0
x[412] 1
x[413] 1
x[414] 1
x[415] 0
x[416] 1
x[417] 1
x[418] 1
x[419] 1
x[420] 1
x[421] 1
x[422] 1
x[423] 1
x[424] 0
x[425] 1
x[426] 0
x[427] 0
x[428] 1
x[429] 0
x[430] 1
x[431] 0
x[432] 0
x[433] 1
x[434] 1
x[435] 1
x[436] 0
x[437] 1
x[438] 0
x[439] 0
x[440] 1
x[441] 1
x[442] 0
x[443] 0
x[444] 1
x[445] 1
x[446] 0
x[447] 0
x[448] 0
x[449] 0
x[450] 0
x[451] 0
x[452] 1
x[453] 0
x[454] 1
x[455] 1
x[456] 0
x[457] 0
x[458] 0
x[459] 1
x[460] 1
x[461] 0
x[462] 1
x[463] 1
x[464] 1
x[465] 1
x[466] 1
x[467] 0
x[468] 0
x[469] 1
x[470] 1
x[471] 0
x[472] 0
x[473] 0
x[474] 0
x[475] 1
x[476] 0
x[477] 1
x[478] 1
x[479] 1
x[480] 0
x[481] 0
x[482] 1
x[483] 0
x[484] 1
x[485] 1
x[486] 1
x[487] 0
x[488] 1
x[489] 0
x[490] 1
x[491] 1
x[492] 0
x[493] 0
x[494] 0
x[495] 1
x[496] 1
x[497] 1
x[498] 0
x[499] 1
x[500] 0
x[501] 1
x[502] 0
x[503] 0
x[504] 1
x[505] 0
x[506] 1
x[507] 1
x[508] 1
x[509] 1
x[510] 0
x[511] 0
x[512] 1
x[513] 1
x[514] 1
x[515] 0
x[516] 0
x[517] 0
x[518] 0
x[519] 1
x[520] 0
x[521] 1
x[522] 1
x[523] 0
x[524] 1
x[525] 1
x[526] 1
x[527] 1
x[528] 1
x[529] 1
x[530] 0
x[531] 1
x[532] 0
x[533] 1
x[534] 1
x[535] 1
x[536] 0
x[537] 0
x[538] 0
x[539] 1
x[540] 1
x[541] 1
x[542] 1
x[543] 0
x[544] 1
x[545] 1
x[546] 0
x[547] 0
x[548] 0
x[549] 1
x[550] 0
x[551] 0
x[552] 1
x[553] 1
x[554] 1
x[555] 0
x[556] 1
x[557] 1
x[558] 0
x[559] 0
x[560] 0
x[561] 0
x[562] 1
x[563] 0
x[564] 1
x[565] 0
x[566] 1
x[567] 1
x[568] 1
x[569] 0
x[570] 1
x[571] 1
x[572] 1
x[573] 0
x[574] 1
x[575] 1
x[576] 1
x[577] 0
x[578] 1
x[579] 0
x[580] 0
x[581] 1
x[582] 0
x[583] 1
x[584] 1
x[585] 1
x[586] 1
x[587] 1
x[588] 1
x[589] 0
x[590] 1
x[591] 0
x[592] 0
x[593] 1
x[594] 1
x[595] 1
x[596] 1
x[597] 1
x[598] 0
x[599] 0
x[600] 0
x[601] 0
x[602] 0
x[603] 0
x[604] 1
x[605] 1
x[606] 0
x[607] 1
x[608] 1
x[609] 0
x[610] 1
x[611] 0
x[612] 1
x[613] 1
x[614] 1
x[615] 1
x[616] 1
x[617] 0
x[618] 1
x[619] 1
x[620] 1
x[621] 1
x[622] 0
x[623] 0
x[624] 0
x[625] 1
x[626] 1
x[627] 0
x[628] 0
x[629] 1
x[630] 1
x[631] 0
x[632] 1
x[633] 1
x[634] 0
x[635] 1
x[636] 1
x[637] 1
x[638] 0
x[639] 0
x[640] 1
x[641] 0
x[642] 1
x[643] 0
x[644] 1
x[645] 0
x[646] 1
x[647] 0
x[648] 1
x[649] 1
x[650] 0
x[651] 0
x[652] 0
x[653] 0
x[654] 1
x[655] 0
x[656] 1
x[657] 1
x[658] 1
x[659] 1
x[660] 0
x[661] 1
x[662] 1
x[663] 0
x[664] 1
x[665] 1
x[666] 1
x[667] 1
x[668] 0
x[669] 0
x[670] 1
x[671] 1
x[672] 1
x[673] 0
x[674] 1
x[675] 1
x[676] 0
x[677] 0
x[678] 1
x[679] 0
x[680] 1
x[681] 0
x[682] 0
x[683] 1
x[684] 0
x[685] 1
x[686] 1
x[687] 1
x[688] 1
x[689] 0
x[690] 1
x[691] 1
x[692] 0
x[693] 1
x[694] 1
x[695] 0
x[696] 1
x[697] 1
x[698] 1
x[699] 1
x[700] 0
x[701] 1
x[702] 1
x[703] 0
x[704] 0
x[705] 0
x[706] 0
x[707] 1
x[708] 1
x[709] 1
x[710] 1
x[711] 1
x[712] 1
x[713] 0
x[714] 1
x[715] 0
x[716] 1
x[717] 0
x[718] 0
x[719] 1
x[720] 0
x[721] 1
x[722] 0
x[723] 1
x[724] 1
x[725] 1
x[726] 0
x[727] 1
x[728] 1
x[729] 1
x[730] 1
x[731] 0
x[732] 0
x[733] 1
x[734] 1
x[735] 1
x[736] 0
x[737] 0
x[738] 0
x[739] 0
x[740] 0
x[741] 1
x[742] 0
x[743] 1
x[744] 1
x[745] 1
x[746] 0
x[747] 1
x[748] 1
x[749] 1
x[750] 0
x[751] 0
x[752] 1
x[753] 1
x[754] 0
x[755] 1
x[756] 0
x[757] 0
x[758] 1
x[759] 0
x[760] 1
x[761] 0
x[762] 0
x[763] 0
x[764] 1
x[765] 0
x[766] 1
x[767] 1
x[768] 0
x[769] 0
x[770] 1
x[771] 0
x[772] 1
x[773] 0
x[774] 0
x[775] 1
x[776] 1
x[777] 1
x[778] 1
x[779] 0
x[780] 0
x[781] 1
x[782] 1
x[783] 0
x[784] 1
x[785] 1
x[786] 0
x[787] 1
x[788] 1
x[789] 0
x[790] 0
x[791] 0
x[792] 1
x[793] 1
x[794] 1
x[795] 0
x[796] 0
x[797] 0
x[798] 0
x[799] 0
x[800] 1
x[801] 1
x[802] 0
x[803] 1
x[804] 1
x[805] 1
x[806] 0
x[807] 0
x[808] 0
x[809] 0
x[810] 0
x[811] 1
x[812] 1
x[813] 1
x[814] 0
x[815] 0
x[816] 0
x[817] 1
x[818] 0
x[819] 0
x[820] 1
x[821] 0
x[822] 1
x[823] 0
x[824] 0
x[825] 1
x[826] 0
x[827] 0
x[828] 1
x[829] 1
x[830] 1
x[831] 1
x[832] 0
x[833] 0
x[834] 1
x[835] 1
x[836] 1
x[837] 0
x[838] 1
x[839] 1
x[840] 1
x[841] 1
x[842] 1
x[843] 0
x[844] 1
x[845] 1
x[846] 1
x[847] 0
x[848] 1
x[849] 1
x[850] 1
x[851] 1
x[852] 1
x[853] 1
x[854] 0
x[855] 1
x[856] 0
x[857] 0
x[858] 1
x[859] 1
x[860] 0
x[861] 0
x[862] 0
x[863] 0
x[864] 0
x[865] 1
x[866] 1
x[867] 1
x[868] 1
x[869] 0
x[870] 0
x[871] 0
x[872] 1
x[873] 0
x[874] 0
x[875] 1
x[876] 0
x[877] 0
x[878] 0
x[879] 0
x[880] 1
x[881] 0
x[882] 1
x[883] 1
x[884] 1
x[885] 1
x[886] 1
x[887] 1
x[888] 0
x[889] 1
x[890] 1
x[891] 0
x[892] 1
x[893] 0
x[894] 0
x[895] 1
x[896] 1
x[897] 0
x[898] 0
x[899] 1
x[900] 1
x[901] 1
x[902] 1
x[903] 1
x[904] 1
x[905] 0
x[906] 0
x[907] 0
x[908] 1
x[909] 1
x[910] 1
x[911] 0
x[912] 1
x[913] 1
x[914] 0
x[915] 1
x[916] 0
x[917] 0
x[918] 1
x[919] 1
x[920] 0
x[921] 1
x[922] 1
x[923] 0
x[924] 0
x[925] 1
x[926] 0
x[927] 1
x[928] 1
x[929] 1
x[930] 0
x[931] 1
x[932] 1
x[933] 0
x[934] 1
x[935] 0
x[936] 0
x[937] 1
x[938] 0
x[939] 0
x[940] 0
x[941] 1
x[942] 1
x[943] 0
x[944] 1
x[945] 1
x[946] 0
x[947] 0
x[948] 0
x[949] 0
x[950] 1
x[951] 1
x[952] 0
x[953] 1
x[954] 1
x[955] 0
x[956] 0
x[957] 0
x[958] 0
x[959] 1
x[960] 0
x[961] 1
x[962] 0
x[963] 0
x[964] 0
x[965] 1
x[966] 1
x[967] 0
x[968] 0
x[969] 1
x[970] 1
x[971] 1
x[972] 1
x[973] 1
x[974] 0
x[975] 1
x[976] 1
x[977] 0
x[978] 1
x[979] 1
x[980] 1
x[981] 1
x[982] 0
x[983] 1
x[984] 1
x[985] 1
x[986] 1
x[987] 1
x[988] 0
x[989] 0
x[990] 0
x[991] 0
x[992] 1
x[993] 0
x[994] 1
x[995] 0
x[996] 1
x[997] 0
x[998] 0
x[999] 1
